50
    1   218   218
    2    95    95
    3   419   419
    4   667   667
    5     5     5
    6   177   177
    7   426   426
    8   321   321
    9    15    15
   10   722   722
   11   464   464
   12   974   974
   13   528   528
   14   522   522
   15   818   818
   16   792   792
   17   760   760
   18   807   807
   19   721   721
   20   663   663
   21   910   910
   22   864   864
   23   458   458
   24   664   664
   25   703   703
   26   220   220
   27   571   571
   28   311   311
   29   767   767
   30   504   504
   31    91    91
   32   697   697
   33   272   272
   34   527   527
   35   807   807
   36   111   111
   37   724   724
   38    59    59
   39   549   549
   40   254   254
   41   664   664
   42   946   946
   43    78    78
   44   772   772
   45   447   447
   46   237   237
   47   757   757
   48   981   981
   49   319   319
   50   946   946
13162
